SCIP Status        : solving was interrupted [time limit reached]
Total Time         :    3600.00
  solving          :    3600.00
  presolving       :       0.38 (included in solving)
  reading          :       0.00
  copying          :       1.93 (46 #copies) (minimal 0.00, maximal 0.10, average 0.04)
Original Problem   :
  Problem name     : bbbenchmark/g05_100.4.cut
  Variables        : 101 (100 binary, 0 integer, 0 implicit integer, 1 continuous)
  Constraints      : 1 initial, 1 maximal
  Objective        : minimize, 1 non-zeros (abs.min = 1, abs.max = 1)
Presolved Problem  :
  Problem name     : t_bbbenchmark/g05_100.4.cut
  Variables        : 1765 (100 binary, 0 integer, 1648 implicit integer, 17 continuous)
  Constraints      : 1697 initial, 6542 maximal
  Objective        : minimize, 1 non-zeros (abs.min = 1, abs.max = 1)
  Nonzeros         : 8443 constraint, 202 clique table
Presolvers         :   ExecTime  SetupTime  Calls  FixedVars   AggrVars   ChgTypes  ChgBounds   AddHoles    DelCons    AddCons   ChgSides   ChgCoefs
  boundshift       :       0.00       0.00      0          0          0          0          0          0          0          0          0          0
  convertinttobin  :       0.00       0.00      0          0          0          0          0          0          0          0          0          0
  domcol           :       0.00       0.00      1          0          0          0          0          0          0          0          0          0
  dualagg          :       0.00       0.00      0          0          0          0          0          0          0          0          0          0
  dualcomp         :       0.00       0.00      1          0          0          0          0          0          0          0          0          0
  dualinfer        :       0.00       0.00      0          0          0          0          0          0          0          0          0          0
  dualsparsify     :       0.00       0.00      1          0          0          0          0          0          0          0          0          0
  gateextraction   :       0.00       0.00      0          0          0          0          0          0          0          0          0          0
  implics          :       0.00       0.00      2          0          0          0          0          0          0          0          0          0
  inttobinary      :       0.00       0.00      0          0          0          0          0          0          0          0          0          0
  qpkktref         :       0.00       0.00      0          0          0          0          0          0          0          0          0          0
  redvub           :       0.00       0.00      0          0          0          0          0          0          0          0          0          0
  sparsify         :       0.00       0.00      1          0          0          0          0          0          0          0          0          0
  stuffing         :       0.00       0.00      0          0          0          0          0          0          0          0          0          0
  trivial          :       0.00       0.00      4          0          0          0          0          0          0          0          0          0
  tworowbnd        :       0.00       0.00      0          0          0          0          0          0          0          0          0          0
  dualfix          :       0.00       0.00      4          0          0          0          0          0          0          0          0          0
  genvbounds       :       0.00       0.00      0          0          0          0          0          0          0          0          0          0
  probing          :       0.31       0.00      1          0          0          0          0          0          0          0          0          0
  pseudoobj        :       0.00       0.00      1          0          0          0          1          0          0          0          0          0
  symmetry         :       0.00       0.00      0          0          0          0          0          0          0          0          0          0
  vbounds          :       0.00       0.00      1          0          0          0          0          0          0          0          0          0
  varbound         :       0.00       0.00      2          0          0          0          0          0          0          0          0          0
  and              :       0.00       0.00      2          0          0          0          0          0          0          0          0          0
  linear           :       0.01       0.00      2          0          0          0          0          0          0          0          0          0
  logicor          :       0.00       0.00      0          0          0          0          0          0          0          0          0          0
  bounddisjunction :       0.00       0.00      0          0          0          0          0          0          0          0          0          0
  nonlinear        :       0.05       0.00      5          0          0          0          1          0          0       1696          0          0
  benders          :       0.00       0.00      0          0          0          0          0          0          0          0          0          0
  components       :       0.00       0.00      1          0          0          0          0          0          0          0          0          0
  root node        :          -          -      -          0          -          -         13          -          -          -          -          -
Constraints        :     Number  MaxNumber  #Separate #Propagate    #EnfoLP    #EnfoRelax  #EnfoPS    #Check   #ResProp    Cutoffs    DomReds       Cuts    Applied      Conss   Children
  benderslp        :          0          0          0          0      68650          0          0       3317          0          0          0          0          0          0          0
  integral         :          0          0          0          0      68650          0          0       3317          0          0        529          0          0        460     136616
  varbound         :         16         16        129     526206          0          0          0         31          0          0      54134          0          0          0          0
  and              :       1648       1648      90839     590708          5          0          0         31     337663          0     245439      19107      18389          0          0
  linear           :         33+       127        129     590762          5          0          0         29       2176         45     230486          0          0          0          0
  logicor          :          0+      4359          0      86749          0          0          0          0        104        411         58          0          0          0          0
  bounddisjunction :          0+       958          0      53576          0          0          0          0          1         45          1          0          0          0          0
  benders          :          0          0          0          0          5          0          0         29          0          0          0          0          0          0          0
  countsols        :          0          0          0          0          5          0          0         29          0          0          0          0          0          0          0
  components       :          0          0          0          0          0          0          0          0          0          0          0          0          0          0          0
Constraint Timings :  TotalTime  SetupTime   Separate  Propagate     EnfoLP     EnfoPS     EnfoRelax   Check    ResProp    SB-Prop
  benderslp        :       0.11       0.00       0.00       0.00       0.11       0.00       0.00       0.00       0.00       0.00
  integral         :      46.04       0.00       0.00       0.00      46.04       0.00       0.00       0.00       0.00       0.00
  varbound         :       0.87       0.00       0.01       0.84       0.00       0.00       0.00       0.00       0.00       0.02
  and              :      82.62       0.00      54.56      27.08       0.00       0.00       0.00       0.01       0.30       0.67
  linear           :       3.71       0.00       0.09       3.53       0.00       0.00       0.00       0.01       0.00       0.08
  logicor          :       5.18       0.00       0.00       5.18       0.00       0.00       0.00       0.00       0.00       0.00
  bounddisjunction :       1.22       0.00       0.00       1.22       0.00       0.00       0.00       0.00       0.00       0.00
  benders          :       0.00       0.00       0.00       0.00       0.00       0.00       0.00       0.00       0.00       0.00
  countsols        :       0.00       0.00       0.00       0.00       0.00       0.00       0.00       0.00       0.00       0.00
  components       :       0.16       0.00       0.00       0.13       0.00       0.00       0.00       0.00       0.00       0.03
Propagators        : #Propagate   #ResProp    Cutoffs    DomReds
  dualfix          :          4          0          0          0
  genvbounds       :          0          0          0          0
  nlobbt           :          0          0          0          0
  obbt             :          0          0          0          0
  probing          :          0          0          0          0
  pseudoobj        :     314610          0          0         17
  redcost          :     171429          0          0      47514
  rootredcost      :         16          0          0          0
  symmetry         :          0          0          0          0
  vbounds          :     100637          0          0          0
Propagator Timings :  TotalTime  SetupTime   Presolve  Propagate    ResProp    SB-Prop
  dualfix          :       0.00       0.00       0.00       0.00       0.00       0.00
  genvbounds       :       0.45       0.00       0.00       0.45       0.00       0.00
  nlobbt           :       0.00       0.00       0.00       0.00       0.00       0.00
  obbt             :       0.01       0.00       0.00       0.01       0.00       0.00
  probing          :       0.31       0.00       0.31       0.00       0.00       0.00
  pseudoobj        :       0.62       0.00       0.00       0.62       0.00       0.00
  redcost          :      10.99       0.00       0.00      10.99       0.00       0.00
  rootredcost      :       0.47       0.00       0.00       0.47       0.00       0.00
  symmetry         :       0.31       0.00       0.00       0.31       0.00       0.00
  vbounds          :       0.49       0.00       0.00       0.49       0.00       0.00
Conflict Analysis  :       Time      Calls    Success    DomReds  Conflicts   Literals    Reconvs ReconvLits   Dualrays   Nonzeros   LP Iters   (pool size: [10000,10000])
  propagation      :       0.02        462        366          -        565       74.4          0        0.0          -          -          -
  infeasible LP    :       0.29        149        149          -       7253      163.3          0        0.0        340      165.8          0
  bound exceed. LP :      16.88       4538       4224          -      91211      111.8          0        0.0          0        0.0      44009
  strong branching :       0.00          0          0          -          0        0.0          0        0.0          -          -          0
  pseudo solution  :       0.00          0          0          -          0        0.0          0        0.0          -          -          -
  applied globally :       0.68          -          -          0      22854      114.5          -          -        340          -          -
  applied locally  :          -          -          -          0          0        0.0          -          -          0          -          -
Separators         :   ExecTime  SetupTime      Calls  RootCalls    Cutoffs    DomReds  FoundCuts ViaPoolAdd  DirectAdd    Applied ViaPoolApp  DirectApp      Conss
  cut pool         :      10.04          -      21768        156          -          -      35895    2831362          -          -          -          -          -    (maximal pool size:       3585)
  aggregation      :      40.69       0.00       5406        129          0          0        495        393          0        106        106          0          0
  > cmir           :          -          -          -          -          -          -          -        393          0        106        106          0          -
  > flowcover      :          -          -          -          -          -          -          -          0          0          0          0          0          -
  > knapsackcover  :          -          -          -          -          -          -          -          0          0          0          0          0          -
  cgmip            :       0.00       0.00          0          0          0          0          0          0          0          0          0          0          0
  clique           :       0.00       0.00        129        129          0          0          0          0          0          0          0          0          0
  closecuts        :       0.00       0.00          0          0          0          0          0          0          0          0          0          0          0
  convexproj       :       0.00       0.00          0          0          0          0          0          0          0          0          0          0          0
  disjunctive      :       0.00       0.00          0          0          0          0          0          0          0          0          0          0          0
  eccuts           :       0.00       0.00          0          0          0          0          0          0          0          0          0          0          0
  gauge            :       0.00       0.00          0          0          0          0          0          0          0          0          0          0          0
  gomory           :       0.00       0.00          0          0          0          0          0          0          0          0          0          0          0
  > gomorymi       :          -          -          -          -          -          -          -          0          0          0          0          0          -
  > strongcg       :          -          -          -          -          -          -          -          0          0          0          0          0          -
  impliedbounds    :       0.44       0.00       5406        129          0          0         41          1          0          1          1          0          0
  interlattice     :       0.72       0.00         97         97          0          0         97          0         97         97          0         97          0
  interminor       :       0.00       0.00          0          0          0          0          0          0          0          0          0          0          0
  intersub         :       0.17       0.00          3          3          0          0          1          0          1          1          0          1          0
  intobj           :       0.00       0.00          0          0          0          0          0          0          0          0          0          0          0
  mcf              :       0.00       0.00          1          1          0          0          0          0          0          0          0          0          0
  minor            :       0.03       0.00          0          0          0          0          0          0          0          0          0          0          0
  mixing           :       0.01       0.00       5406        129          0          0          0          0          0          0          0          0          0
  oddcycle         :       0.00       0.00          0          0          0          0          0          0          0          0          0          0          0
  rapidlearning    :       0.00       0.00          0          0          0          0          0          0          0          0          0          0          0
  rlt              :       0.00       0.00         10         10          0          0          0          0          0          0          0          0          0
  zerohalf         :      43.42       0.00       4655         20          0          0      35359    2830968          0     175789     175789          0          0
Cutselectors       :   ExecTime  SetupTime      Calls  RootCalls   Selected     Forced   Filtered  RootSelec   RootForc   RootFilt 
  hybrid           :       2.97       0.00      21504        130     194383          0    2656184        298          0          4
Pricers            :   ExecTime  SetupTime      Calls       Vars
  problem variables:       0.00          -          0          0
Branching Rules    :   ExecTime  SetupTime   BranchLP  BranchExt   BranchPS    Cutoffs    DomReds       Cuts      Conss   Children
  allfullstrong    :       0.00       0.00          0          0          0          0          0          0          0          0
  cloud            :       0.00       0.00          0          0          0          0          0          0          0          0
  distribution     :       0.00       0.00          0          0          0          0          0          0          0          0
  fullstrong       :       0.00       0.00          0          0          0          0          0          0          0          0
  inference        :       0.00       0.00          0          0          0          0          0          0          0          0
  leastinf         :       0.00       0.00          0          0          0          0          0          0          0          0
  lookahead        :       0.00       0.00          0          0          0          0          0          0          0          0
  mostinf          :       0.00       0.00          0          0          0          0          0          0          0          0
  multaggr         :       0.00       0.00          0          0          0          0          0          0          0          0
  nodereopt        :       0.00       0.00          0          0          0          0          0          0          0          0
  pscost           :       0.00       0.00          0          0          0          0          0          0          0          0
  random           :       0.00       0.00          0          0          0          0          0          0          0          0
  relpscost        :      45.82       0.00      68645          0          0          0        529          0        460     136616
  vanillafullstrong:       0.00       0.00          0          0          0          0          0          0          0          0
Primal Heuristics  :   ExecTime  SetupTime      Calls      Found       Best
  LP solutions     :       0.05          -          -          5          5
  relax solutions  :       0.00          -          -          0          0
  pseudo solutions :       0.00          -          -          0          0
  strong branching :       0.03          -          -          0          0
  actconsdiving    :       0.00       0.00          0          0          0
  adaptivediving   :       4.27       0.00         30          0          0
  alns             :       3.56       0.00         18          4          4
  bound            :       0.00       0.00          0          0          0
  clique           :       0.01       0.00          1          0          0
  coefdiving       :       0.00       0.00          0          0          0
  completesol      :       0.00       0.00          0          0          0
  conflictdiving   :      86.41       0.00        589          0          0
  crossover        :       0.13       0.00          2          0          0
  dins             :       0.00       0.00          0          0          0
  distributiondivin:      82.98       0.00        346          0          0
  dps              :       0.00       0.00          0          0          0
  dualval          :       0.00       0.00          0          0          0
  farkasdiving     :       0.00       0.00          0          0          0
  feaspump         :       0.39       0.00          1          1          1
  fixandinfer      :       0.00       0.00          0          0          0
  fracdiving       :      53.38       0.00        402          0          0
  gins             :       0.10       0.00          0          0          0
  guideddiving     :      56.27       0.00        403          5          5
  indicator        :       0.11       0.00          0          0          0
  indicatordiving  :       0.00       0.00          0          0          0
  intdiving        :       0.00       0.00          0          0          0
  intshifting      :       0.43       0.00         45          0          0
  linesearchdiving :      50.11       0.00        402          0          0
  localbranching   :       0.00       0.00          0          0          0
  locks            :       0.01       0.00          1          0          0
  lpface           :       0.11       0.00          0          0          0
  mpec             :     455.42       0.00         11          3          2
  multistart       :       0.00       0.00          0          0          0
  mutation         :       0.00       0.00          0          0          0
  nlpdiving        :      30.33       0.00          2          0          0
  objpscostdiving  :      55.10       0.00         50          8          0
  octane           :       0.00       0.00          0          0          0
  ofins            :       0.06       0.00          0          0          0
  oneopt           :       0.08       0.00         19          0          0
  padm             :       0.00       0.00          0          0          0
  proximity        :       0.00       0.00          0          0          0
  pscostdiving     :      60.88       0.00        341          0          0
  randrounding     :       1.12       0.00       3284          0          0
  rens             :       0.00       0.00          0          0          0
  reoptsols        :       0.00       0.00          0          0          0
  repair           :       0.00       0.00          0          0          0
  rins             :       3.49       0.00         25          1          1
  rootsoldiving    :      34.03       0.00         33          0          0
  rounding         :       1.25       0.00       4097          0          0
  shiftandpropagate:       0.00       0.00          0          0          0
  shifting         :      24.53       0.00       5109          1          1
  simplerounding   :       0.09       0.00          0          0          0
  subnlp           :     132.57       0.00          0          0          0
  trivial          :       0.01       0.00          2          2          2
  trivialnegation  :       0.00       0.00          0          0          0
  trustregion      :       0.00       0.00          0          0          0
  trysol           :       0.09       0.00          0          0          0
  twoopt           :       0.00       0.00          0          0          0
  undercover       :       1.83       0.00          1          1          1
  vbounds          :       0.00       0.00          0          0          0
  veclendiving     :      54.27       0.00        402          0          0
  zeroobj          :       0.00       0.00          0          0          0
  zirounding       :       0.54       0.00       1000          0          0
  other solutions  :          -          -          -          0          -
Diving (single)    :      Calls      Nodes   LP Iters Backtracks  Conflicts   MinDepth   MaxDepth   AvgDepth  RoundSols  NLeafSols  MinSolDpt  MaxSolDpt  AvgSolDpt
  actconsdiving    :          0          -          -          -          -          -          -          -          -          -          -          -          -
  coefdiving       :          0          -          -          -          -          -          -          -          -          -          -          -          -
  conflictdiving   :        589      27522     813510        670      34479         51         82       65.9          0          -          -          -          -
  distributiondivin:        346      14623     580042        377       6686         37         74       60.6          0          -          -          -          -
  farkasdiving     :          0          -          -          -          -          -          -          -          -          -          -          -          -
  fracdiving       :        402      42493     479625         73       1233         55        590      125.3          0          -          -          -          -
  guideddiving     :        403      39285     516387        118       4182         53        358      117.8          0          5        105        150      119.8
  indicatordiving  :          0          -          -          -          -          -          -          -          -          -          -          -          -
  linesearchdiving :        402      18664     484831        198      17954         50        103       68.2          0          -          -          -          -
  pscostdiving     :        341      15698     579726        366       6311         54         75       64.6          0          -          -          -          -
  veclendiving     :        402      19953     518877        306      25689         54         85       68.5          0          -          -          -          -
Diving (adaptive)  :      Calls      Nodes   LP Iters Backtracks  Conflicts   MinDepth   MaxDepth   AvgDepth  RoundSols  NLeafSols  MinSolDpt  MaxSolDpt  AvgSolDpt
  actconsdiving    :          3        136       4789          3         64         60         61       60.3          0          -          -          -          -
  coefdiving       :         13        732      16699          6        806         63         83       72.6          0          -          -          -          -
  conflictdiving   :          0          -          -          -          -          -          -          -          -          -          -          -          -
  distributiondivin:          0          -          -          -          -          -          -          -          -          -          -          -          -
  farkasdiving     :          0          -          -          -          -          -          -          -          -          -          -          -          -
  fracdiving       :          2        188       2768          0          0        107        117      112.0          0          -          -          -          -
  guideddiving     :          1         82       1364          1         26        104        104      104.0          0          -          -          -          -
  indicatordiving  :          0          -          -          -          -          -          -          -          -          -          -          -          -
  linesearchdiving :          4        204       4997          1        157         65         74       69.2          0          -          -          -          -
  pscostdiving     :          1         43       1739          1         20         61         61       61.0          0          -          -          -          -
  veclendiving     :          6        306       5771          5        368         69         78       72.5          0          -          -          -          -
Neighborhoods      :      Calls  SetupTime  SolveTime SolveNodes       Sols       Best       Exp3  EpsGreedy        UCB TgtFixRate  Opt  Inf Node Stal  Sol  Usr Othr Actv
  rens             :          6       0.58       0.68        215          3          3    0.00000   -1.00000    0.47122      0.562    0    3    0    2    1    0    0    1
  rins             :          1       0.04       0.05        159          0          0    0.00000   -1.00000    0.40964      0.700    0    1    0    0    0    0    0    1
  mutation         :          2       0.12       0.08         62          0          0    0.00000   -1.00000    0.46911      0.850    0    1    0    1    0    0    0    1
  localbranching   :          2       0.16       0.13        101          0          0    0.00000   -1.00000    0.45476      0.850    0    1    0    1    0    0    0    1
  crossover        :          1       0.08       0.06         79          0          0    0.00000   -1.00000    0.41854      0.700    0    1    0    0    0    0    0    1
  proximity        :          2       0.14       0.93        986          1          1    0.00000   -1.00000    0.48367      0.850    1    0    0    1    0    0    0    1
  zeroobjective    :          2       0.17       0.05         91          0          0    0.00000   -1.00000    0.45903      0.850    0    1    0    1    0    0    0    1
  dins             :          2       0.09       0.09         70          0          0    0.00000   -1.00000    0.46186      0.850    0    1    0    1    0    0    0    1
  trustregion      :          0       0.00       0.00          0          0          0    0.00000   -1.00000    1.00000      0.900    0    0    0    0    0    0    0    0
Expressions        :   #IntEval  IntEvalTi   #RevProp  RevPropTi    DomReds    Cutoffs  #Estimate  EstimTime  Branching  #Simplify SimplifyTi Simplified
  pow              :          0       0.00          0       0.00          0          0          0       0.00          0          0       0.00          0
  prod             :       9900       0.00          0       0.00          0          0          0       0.00          0       6598       0.00          0
  sum              :          8       0.00          2       0.00          0          0          0       0.00          0          3       0.01          2
  var              :       6104       0.00          0       0.00          0          0          0       0.00          0      15163       0.00          0
  varidx           :          0       0.00          0       0.00          0          0          0       0.00          0          0       0.00          0
LP                 :       Time      Calls Iterations  Iter/call   Iter/sec  Time-0-It Calls-0-It    ItLimit
  primal LP        :     102.06      11769          0       0.00       0.00     102.02      11769
  dual LP          :    1916.41     147975   11233758      82.97    5861.88       5.58      12581
  lex dual LP      :       0.00          0          0       0.00          -
  barrier LP       :       0.00          0          0       0.00          -       0.00          0
  resolve instable :       0.00          0          0       0.00          -
  diving/probing LP:     448.83      15813    4492532     284.10   10009.43
  strong branching :      20.49       1759     180278     102.49    8798.34          -          -         10
    (at root node) :          -         20       4900     245.00          -
  conflict analysis:       6.78       4574      44009       9.62    6491.00
NLP relaxation     :
  solve time       :      29.74 (10 calls)
  convexity        :  nonconvex (49 linear rows, 0 convex ineq., 0 nonconvex ineq., 1648 nonlinear eq. or two-sided ineq.)
NLP Solvers        :  #Problems  ProblemTi    #Solves  SolveTime      #Iter  Time/Iter      #Okay #TimeLimit #IterLimit #LObjLimit #Interrupt  #NumError #EvalError  #OutOfMem #LicenseEr #OtherTerm   #GlobOpt    #LocOpt  #Feasible #LocInfeas #GlobInfea #Unbounded   #Unknown
  ipopt            :         12       5.57         39     491.11       1972       0.25         37          0          2          0          0          0          0          0          0          0          0         23          0         13          0          0          3
B&B Tree           :
  number of runs   :          1
  nodes            :     113567 (68308 internal, 45259 leaves)
  feasible leaves  :          5
  infeas. leaves   :          7
  objective leaves :      45247
  nodes (total)    :     113567 (68308 internal, 45259 leaves)
  nodes left       :      22957
  max depth        :         62
  max depth (total):         62
  backtracks       :      26382 (23.2%)
  early backtracks :          0 (0.0%)
  nodes exc. ref.  :          0 (0.0%)
  delayed cutoffs  :         11
  repropagations   :       3827 (196 domain reductions, 0 cutoffs)
  avg switch length:       5.95
  switching time   :     133.85
Estim. Tree Size   :     227320
Estimation Tree    : 136617 nodes (113660 visited, 68308 internal, 45352 leaves, 22957 open), weight: 0.0000 completed 0.0816
Estimations        :      estim      value      trend resolution     smooth
  wbe              : 377312455959389          -          -          -          -
  tree-profile     :         -1          -          -          -          -
  gap              :    1949157    0.67138    0.00002         64    1917369
  tree-weight      :     227320    0.00000    0.00000         64     226998
  leaf-frequency   :     227320    0.39901   -0.00000         64     226999
  ssg              :    8282803    0.87123   -0.00001         64    8195678
  open-nodes       :     227320 22957.00000   22.57485         64     226998
Root Node          :
  First LP value   : -1.00000000000000e+00
  First LP Iters   :       1623 (11592.86 Iter/sec)
  First LP Time    :       0.14
  Final Dual Bound : -9.48040894674906e-01
  Final Root Iters :       3862
  Root LP Estimate : -2.93481080932721e-01
Solution           :
  Solutions found  :         31 (22 improvements)
  First Solution   : +1.00000000000000e+05   (in run 1, after 0 nodes, 0.00 seconds, depth 0, found by <trivial>)
  Gap First Sol.   :   infinite
  Gap Last Sol.    :      49.66 %
  Primal Bound     : -5.61212121212120e-01   (in run 1, after 98035 nodes, 2744.56 seconds, depth 48, found by <relaxation>)
  Dual Bound       : -8.35907556009513e-01
  Gap              :      48.95 %
Integrals          :      Total       Avg%
  primal-dual      :  128369.07      35.66
  primal-ref       :          -          - (not evaluated)
  dual-ref         :          -          - (not evaluated)
